NAME: square
TYPE: VRP
COMMENT: Square
DIMENSION: 5
DEPOT: 1
NUMBER_OF_VEHICLES: 10
NUMBER_OF_OPERATORS: 15
SETUP_TIME: 10
DRONE_SPEED: 10
DRONE_CAMERA_RADIUS: 1
EDGE_WEIGHT_TYPE : EUC_2D
NODE_COORD_SECTION
1 0 50
2 0 0
3 0 100
4 100 100
5 100 0
EOF
